NAME : in_house_8_2
TYPE : TSP
DIMENSION : 8
EDGE_WEIGHT_TYPE : EXPLICIT
EDGE_WEIGHT_FORMAT : UPPER_ROW
COMMENT : INVERSION_SHIFT=2
EDGE_WEIGHT_SECTION
23
45
28
25
3
60
36
19
58
62
33
46
41
27
25
24
15
53
50
45
33
18
38
17
32
15
12
24
